benchmarks/bfuzz0/9599298442160209843591246552596624202.smt2
(set-logic QF_FP)
(declare-const x0 (_ FloatingPoint 11 53))
(declare-const x1 (_ FloatingPoint 11 53))
(declare-const x2 (_ FloatingPoint 11 53))
(declare-const x3 (_ FloatingPoint 11 53))
(declare-const x4 (_ FloatingPoint 11 53))
(declare-const x5 (_ FloatingPoint 11 53))
(declare-const x6 (_ FloatingPoint 11 53))
(declare-const x7 (_ FloatingPoint 11 53))
(declare-const x8 (_ FloatingPoint 11 53))
(declare-const x9 (_ FloatingPoint 11 53))
(declare-const x10 (_ FloatingPoint 11 53))
(declare-const x11 (_ FloatingPoint 11 53))
(declare-const x12 (_ FloatingPoint 11 53))
(declare-const x13 (_ FloatingPoint 11 53))
(declare-const x14 (_ FloatingPoint 11 53))
(declare-const x15 (_ FloatingPoint 11 53))
(declare-const x16 (_ FloatingPoint 11 53))
(declare-const x17 (_ FloatingPoint 11 53))
(declare-const x18 (_ FloatingPoint 11 53))
(declare-const x19 (_ FloatingPoint 11 53))
(assert (fp.geq (fp.sub RNE x9 x0) (fp.sub RNE x5 x14)))
(assert (fp.leq (fp.neg x15) (fp.div RNE x12 x15)))
(assert (fp.eq (fp.sub RNE x11 x4) (fp.mul RNE x12 x7)))
(assert (fp.geq (fp.div RNE x1 x16) (fp.neg x4)))
(assert (fp.gt (fp.mul RNE x3 x15) (fp.sub RNE x0 x15)))
(assert (fp.eq (fp.div RNE x1 x5) (fp.neg x8)))
(assert (fp.gt (fp.neg x14) (fp.sub RNE x3 x13)))
(assert (fp.lt (fp.div RNE x3 x10) (fp.div RNE x2 x1)))
(assert (fp.geq (fp.neg x12) (fp.mul RNE x12 x15)))
(check-sat)
