db/data/9599298442160209843591246552596624202.z3.out
-------------------
2500.137678623
